p edge 75 555
e 1 4
e 1 8
e 1 13
e 1 20
e 1 23
e 1 36
e 1 38
e 1 42
e 1 44
e 1 55
e 1 65
e 2 11
e 2 16
e 2 17
e 2 18
e 2 19
e 2 22
e 2 25
e 2 26
e 2 29
e 2 30
e 2 35
e 2 37
e 2 39
e 2 42
e 2 52
e 2 60
e 3 4
e 3 6
e 3 18
e 3 21
e 3 30
e 3 35
e 3 37
e 3 38
e 3 40
e 3 42
e 3 44
e 3 49
e 3 53
e 3 55
e 3 66
e 4 7
e 4 11
e 4 18
e 4 20
e 4 21
e 4 30
e 4 32
e 4 37
e 4 38
e 4 46
e 4 49
e 4 72
e 4 74
e 5 6
e 5 10
e 5 12
e 5 15
e 5 16
e 5 19
e 5 25
e 5 32
e 5 39
e 5 40
e 5 56
e 5 65
e 6 9
e 6 16
e 6 18
e 6 20
e 6 21
e 6 24
e 6 27
e 6 36
e 6 37
e 6 42
e 6 51
e 6 59
e 6 75
e 7 8
e 7 13
e 7 15
e 7 20
e 7 26
e 7 31
e 7 32
e 7 40
e 7 41
e 7 45
e 7 46
e 7 57
e 7 58
e 7 68
e 7 75
e 8 11
e 8 14
e 8 15
e 8 20
e 8 34
e 8 37
e 8 41
e 8 54
e 8 56
e 8 59
e 8 61
e 8 73
e 9 10
e 9 18
e 9 30
e 9 33
e 9 41
e 9 43
e 9 51
e 9 60
e 9 66
e 9 68
e 9 71
e 9 72
e 9 75
e 10 13
e 10 14
e 10 21
e 10 24
e 10 32
e 10 33
e 10 34
e 10 37
e 10 47
e 10 55
e 10 57
e 11 15
e 11 21
e 11 29
e 11 35
e 11 39
e 11 40
e 11 42
e 11 43
e 11 44
e 11 55
e 11 65
e 11 66
e 11 74
e 11 75
e 12 19
e 12 21
e 12 26
e 12 28
e 12 32
e 12 35
e 12 39
e 12 42
e 12 44
e 12 46
e 12 56
e 12 57
e 12 70
e 12 75
e 13 21
e 13 28
e 13 34
e 13 44
e 13 49
e 13 51
e 13 57
e 13 61
e 13 64
e 13 69
e 13 72
e 13 73
e 14 15
e 14 17
e 14 26
e 14 27
e 14 33
e 14 43
e 14 53
e 14 61
e 14 64
e 14 66
e 15 21
e 15 22
e 15 27
e 15 29
e 15 44
e 15 46
e 15 54
e 15 55
e 15 63
e 15 72
e 16 23
e 16 25
e 16 28
e 16 29
e 16 42
e 16 46
e 16 49
e 16 50
e 16 54
e 16 61
e 16 64
e 16 68
e 16 74
e 17 22
e 17 33
e 17 36
e 17 39
e 17 44
e 17 49
e 17 66
e 17 69
e 17 71
e 18 19
e 18 28
e 18 34
e 18 36
e 18 38
e 18 41
e 18 44
e 18 54
e 18 55
e 18 63
e 18 65
e 18 71
e 18 73
e 19 22
e 19 29
e 19 41
e 19 47
e 19 56
e 19 58
e 19 60
e 19 61
e 19 63
e 19 67
e 19 71
e 20 21
e 20 28
e 20 33
e 20 35
e 20 39
e 20 46
e 20 49
e 20 51
e 20 56
e 20 58
e 20 59
e 20 60
e 20 61
e 20 66
e 20 69
e 20 71
e 20 72
e 21 23
e 21 30
e 21 32
e 21 34
e 21 35
e 21 48
e 21 61
e 21 62
e 21 63
e 21 65
e 21 70
e 21 71
e 21 72
e 22 31
e 22 50
e 22 53
e 22 64
e 22 67
e 22 70
e 23 27
e 23 28
e 23 49
e 23 51
e 23 53
e 23 59
e 23 62
e 23 63
e 23 67
e 23 70
e 23 73
e 24 25
e 24 27
e 24 31
e 24 33
e 24 36
e 24 47
e 24 48
e 24 60
e 24 63
e 24 64
e 24 66
e 24 73
e 24 75
e 25 27
e 25 28
e 25 30
e 25 33
e 25 37
e 25 39
e 25 57
e 25 64
e 25 65
e 25 67
e 25 70
e 26 47
e 26 50
e 26 54
e 26 59
e 26 63
e 26 65
e 26 66
e 26 68
e 26 70
e 27 38
e 27 54
e 27 59
e 27 63
e 27 69
e 28 29
e 28 30
e 28 33
e 28 45
e 28 47
e 28 52
e 28 54
e 28 55
e 28 60
e 28 69
e 28 74
e 28 75
e 29 42
e 29 45
e 29 55
e 29 67
e 29 68
e 29 71
e 29 73
e 30 35
e 30 36
e 30 44
e 30 51
e 30 54
e 30 57
e 30 61
e 30 68
e 31 36
e 31 38
e 31 39
e 31 41
e 31 50
e 31 53
e 31 58
e 31 68
e 32 35
e 32 38
e 32 43
e 32 57
e 32 59
e 32 68
e 32 69
e 32 72
e 32 75
e 33 46
e 33 47
e 33 53
e 33 62
e 33 67
e 34 38
e 34 42
e 34 44
e 34 48
e 34 49
e 34 56
e 34 64
e 35 56
e 35 65
e 35 67
e 35 68
e 35 69
e 35 75
e 36 47
e 36 50
e 36 53
e 36 54
e 36 56
e 36 69
e 36 73
e 37 38
e 37 41
e 37 42
e 37 43
e 37 44
e 37 55
e 37 57
e 37 59
e 37 61
e 37 65
e 37 70
e 37 74
e 37 75
e 38 42
e 38 64
e 38 70
e 39 42
e 39 43
e 39 49
e 39 51
e 39 53
e 39 57
e 39 63
e 39 66
e 39 68
e 39 72
e 40 49
e 40 53
e 40 56
e 40 63
e 40 67
e 40 72
e 40 75
e 41 43
e 41 44
e 41 46
e 41 47
e 41 51
e 41 56
e 41 60
e 41 69
e 41 71
e 41 73
e 41 75
e 42 43
e 42 44
e 42 45
e 42 47
e 42 52
e 42 61
e 42 65
e 42 71
e 43 44
e 43 45
e 43 49
e 43 52
e 43 54
e 43 55
e 43 56
e 43 57
e 43 63
e 43 64
e 43 71
e 43 74
e 44 54
e 44 62
e 44 75
e 45 46
e 45 51
e 45 71
e 45 72
e 45 75
e 46 49
e 46 50
e 46 57
e 46 60
e 46 68
e 46 73
e 46 74
e 47 50
e 47 55
e 47 56
e 47 63
e 47 70
e 47 71
e 48 73
e 49 58
e 49 61
e 49 66
e 49 70
e 50 57
e 50 67
e 51 59
e 51 61
e 51 62
e 51 67
e 51 68
e 51 74
e 52 57
e 52 66
e 52 70
e 52 71
e 52 72
e 53 59
e 53 60
e 53 67
e 53 69
e 53 72
e 53 73
e 54 55
e 54 57
e 54 58
e 54 60
e 54 61
e 54 67
e 54 72
e 54 73
e 54 75
e 55 56
e 55 66
e 55 70
e 56 64
e 56 68
e 56 69
e 56 71
e 56 72
e 57 62
e 57 66
e 58 70
e 58 75
e 59 60
e 59 63
e 59 65
e 59 68
e 60 63
e 61 62
e 61 65
e 61 66
e 61 68
e 62 63
e 62 65
e 62 71
e 63 66
e 63 75
e 64 65
e 64 74
e 65 66
e 65 67
e 65 74
e 66 69
e 66 70
e 66 72
e 66 73
e 67 70
e 67 74
e 68 69
e 68 70
e 68 72
e 68 73
e 68 75
e 69 70
e 69 71
e 69 72
e 70 72
